\ Model OA
\ LP format - for model browsing. Use MPS format to capture full model detail.
Minimize
  eta + 0 x_0_0 + 0 x_0_1 + 0 x_1_0 + 0 x_1_1 + 0 x_2_0 + 0 x_2_1 + 0 x_3_0
   + 0 x_3_1 + 0 x_4_0 + 0 x_4_1
Subject To
 initial_constr: eta >= 0
 R1: z_0_0 + z_0_1 + z_0_2 + z_0_3 + z_0_4 = 1
 R2: z_1_0 + z_1_1 + z_1_2 + z_1_3 + z_1_4 = 1
 R3: z_2_0 + z_2_1 + z_2_2 + z_2_3 + z_2_4 = 1
 R4: z_3_0 + z_3_1 + z_3_2 + z_3_3 + z_3_4 = 1
 R5: z_4_0 + z_4_1 + z_4_2 + z_4_3 + z_4_4 = 1
 R6: z_5_0 + z_5_1 + z_5_2 + z_5_3 + z_5_4 = 1
 R7: z_6_0 + z_6_1 + z_6_2 + z_6_3 + z_6_4 = 1
 R8: z_7_0 + z_7_1 + z_7_2 + z_7_3 + z_7_4 = 1
 R9: z_8_0 + z_8_1 + z_8_2 + z_8_3 + z_8_4 = 1
 R10: z_9_0 + z_9_1 + z_9_2 + z_9_3 + z_9_4 = 1
 R11: z_10_0 + z_10_1 + z_10_2 + z_10_3 + z_10_4 = 1
 R12: z_11_0 + z_11_1 + z_11_2 + z_11_3 + z_11_4 = 1
 R13: z_12_0 + z_12_1 + z_12_2 + z_12_3 + z_12_4 = 1
 R14: z_13_0 + z_13_1 + z_13_2 + z_13_3 + z_13_4 = 1
 R15: z_14_0 + z_14_1 + z_14_2 + z_14_3 + z_14_4 = 1
 R16: z_15_0 + z_15_1 + z_15_2 + z_15_3 + z_15_4 = 1
 R17: z_16_0 + z_16_1 + z_16_2 + z_16_3 + z_16_4 = 1
 R18: z_17_0 + z_17_1 + z_17_2 + z_17_3 + z_17_4 = 1
 R19: z_18_0 + z_18_1 + z_18_2 + z_18_3 + z_18_4 = 1
 R20: z_19_0 + z_19_1 + z_19_2 + z_19_3 + z_19_4 = 1
Bounds
Binaries
 z_0_0 z_1_0 z_2_0 z_3_0 z_4_0 z_5_0 z_6_0 z_7_0 z_8_0 z_9_0 z_10_0 z_11_0
 z_12_0 z_13_0 z_14_0 z_15_0 z_16_0 z_17_0 z_18_0 z_19_0 z_0_1 z_1_1 z_2_1
 z_3_1 z_4_1 z_5_1 z_6_1 z_7_1 z_8_1 z_9_1 z_10_1 z_11_1 z_12_1 z_13_1
 z_14_1 z_15_1 z_16_1 z_17_1 z_18_1 z_19_1 z_0_2 z_1_2 z_2_2 z_3_2 z_4_2
 z_5_2 z_6_2 z_7_2 z_8_2 z_9_2 z_10_2 z_11_2 z_12_2 z_13_2 z_14_2 z_15_2
 z_16_2 z_17_2 z_18_2 z_19_2 z_0_3 z_1_3 z_2_3 z_3_3 z_4_3 z_5_3 z_6_3
 z_7_3 z_8_3 z_9_3 z_10_3 z_11_3 z_12_3 z_13_3 z_14_3 z_15_3 z_16_3 z_17_3
 z_18_3 z_19_3 z_0_4 z_1_4 z_2_4 z_3_4 z_4_4 z_5_4 z_6_4 z_7_4 z_8_4 z_9_4
 z_10_4 z_11_4 z_12_4 z_13_4 z_14_4 z_15_4 z_16_4 z_17_4 z_18_4 z_19_4
End
